
Gurobi 7.5.1 (mac64, Python) logging started Tue Apr 17 09:57:47 2018


Gurobi 7.5.1 (mac64, Python) logging started Tue Apr 17 09:57:47 2018


Gurobi 7.5.1 (mac64, Python) logging started Tue Apr 17 09:57:47 2018

Academic license - for non-commercial use only
Academic license - for non-commercial use only
Academic license - for non-commercial use only

Gurobi 7.5.1 (mac64, Python) logging started Tue Apr 17 10:01:59 2018


Gurobi 7.5.1 (mac64, Python) logging started Tue Apr 17 10:01:59 2018

Academic license - for non-commercial use only
Academic license - for non-commercial use only

Gurobi 7.5.1 (mac64, Python) logging started Tue Apr 17 10:01:59 2018

Academic license - for non-commercial use only

Gurobi 7.5.1 (mac64, Python) logging started Tue Apr 17 10:07:05 2018

Academic license - for non-commercial use only

Gurobi 7.5.1 (mac64, Python) logging started Tue Apr 17 10:07:05 2018

Academic license - for non-commercial use only

Gurobi 7.5.1 (mac64, Python) logging started Tue Apr 17 10:07:05 2018

Academic license - for non-commercial use only

Gurobi 7.5.1 (mac64, Python) logging started Tue Apr 17 10:07:06 2018

Academic license - for non-commercial use only

Gurobi 7.5.1 (mac64, Python) logging started Tue Apr 17 10:07:06 2018

Academic license - for non-commercial use only

Gurobi 7.5.1 (mac64, Python) logging started Tue Apr 17 10:07:07 2018

Academic license - for non-commercial use only

Gurobi 7.5.1 (mac64, Python) logging started Tue Apr 17 10:07:07 2018


Gurobi 7.5.1 (mac64, Python) logging started Tue Apr 17 10:07:07 2018

Academic license - for non-commercial use only
Academic license - for non-commercial use only

Gurobi 7.5.1 (mac64, Python) logging started Tue Apr 17 10:07:08 2018


Gurobi 7.5.1 (mac64, Python) logging started Tue Apr 17 10:07:08 2018

Academic license - for non-commercial use only
Academic license - for non-commercial use only

Gurobi 7.5.1 (mac64, Python) logging started Tue Apr 17 10:07:08 2018


Gurobi 7.5.1 (mac64, Python) logging started Tue Apr 17 10:07:08 2018

Academic license - for non-commercial use only
Academic license - for non-commercial use only

Gurobi 7.5.1 (mac64, Python) logging started Tue Apr 17 10:07:08 2018

Academic license - for non-commercial use only

Gurobi 7.5.1 (mac64, Python) logging started Tue Apr 17 10:07:08 2018

Academic license - for non-commercial use only

Gurobi 7.5.1 (mac64, Python) logging started Tue Apr 17 10:07:08 2018


Gurobi 7.5.1 (mac64, Python) logging started Tue Apr 17 10:07:08 2018

Academic license - for non-commercial use only
Academic license - for non-commercial use only

Gurobi 7.5.1 (mac64, Python) logging started Tue Apr 17 10:07:09 2018


Gurobi 7.5.1 (mac64, Python) logging started Tue Apr 17 10:07:09 2018

Academic license - for non-commercial use only
Academic license - for non-commercial use only

Gurobi 7.5.1 (mac64, Python) logging started Tue Apr 17 10:07:09 2018

Academic license - for non-commercial use only

Gurobi 7.5.1 (mac64, Python) logging started Tue Apr 17 10:08:27 2018


Gurobi 7.5.1 (mac64, Python) logging started Tue Apr 17 10:08:27 2018

Academic license - for non-commercial use only
Academic license - for non-commercial use only

Gurobi 7.5.1 (mac64, Python) logging started Tue Apr 17 10:08:27 2018

Academic license - for non-commercial use only

Gurobi 7.5.1 (mac64, Python) logging started Tue Apr 17 10:10:00 2018


Gurobi 7.5.1 (mac64, Python) logging started Tue Apr 17 10:10:00 2018

Academic license - for non-commercial use only
Academic license - for non-commercial use only

Gurobi 7.5.1 (mac64, Python) logging started Tue Apr 17 10:10:00 2018

Academic license - for non-commercial use only

Gurobi 7.5.1 (mac64, Python) logging started Tue Apr 17 10:10:41 2018


Gurobi 7.5.1 (mac64, Python) logging started Tue Apr 17 10:10:41 2018

Academic license - for non-commercial use only
Academic license - for non-commercial use only

Gurobi 7.5.1 (mac64, Python) logging started Tue Apr 17 10:10:41 2018

Academic license - for non-commercial use only

Gurobi 7.5.1 (mac64, Python) logging started Tue Apr 17 10:12:49 2018

Academic license - for non-commercial use only

Gurobi 7.5.1 (mac64, Python) logging started Tue Apr 17 10:44:22 2018

Academic license - for non-commercial use only

Gurobi 7.5.1 (mac64, Python) logging started Tue Apr 17 10:44:50 2018

Academic license - for non-commercial use only

Gurobi 7.5.1 (mac64, Python) logging started Tue Apr 17 11:49:47 2018

Academic license - for non-commercial use only

Gurobi 7.5.1 (mac64, Python) logging started Tue Apr 17 11:53:08 2018


Gurobi 7.5.1 (mac64, Python) logging started Tue Apr 17 11:53:08 2018

Academic license - for non-commercial use only
Academic license - for non-commercial use only

Gurobi 7.5.1 (mac64, Python) logging started Tue Apr 17 11:53:08 2018

Academic license - for non-commercial use only

Gurobi 7.5.1 (mac64, Python) logging started Tue Apr 17 11:53:38 2018

Academic license - for non-commercial use only

Gurobi 7.5.1 (mac64, Python) logging started Tue Apr 17 11:53:38 2018

Academic license - for non-commercial use only

Gurobi 7.5.1 (mac64, Python) logging started Tue Apr 17 11:53:38 2018

Academic license - for non-commercial use only

Gurobi 7.5.1 (mac64, Python) logging started Tue Apr 17 11:54:03 2018

Academic license - for non-commercial use only

Gurobi 7.5.1 (mac64, Python) logging started Tue Apr 17 11:54:03 2018

Academic license - for non-commercial use only

Gurobi 7.5.1 (mac64, Python) logging started Tue Apr 17 11:54:03 2018

Academic license - for non-commercial use only

Gurobi 7.5.1 (mac64, Python) logging started Tue Apr 17 11:54:33 2018

Academic license - for non-commercial use only

Gurobi 7.5.1 (mac64, Python) logging started Tue Apr 17 11:54:33 2018

Academic license - for non-commercial use only

Gurobi 7.5.1 (mac64, Python) logging started Tue Apr 17 11:54:33 2018

Academic license - for non-commercial use only

Gurobi 7.5.1 (mac64, Python) logging started Tue Apr 17 11:55:03 2018

Academic license - for non-commercial use only

Gurobi 7.5.1 (mac64, Python) logging started Tue Apr 17 11:55:03 2018

Academic license - for non-commercial use only

Gurobi 7.5.1 (mac64, Python) logging started Tue Apr 17 11:55:03 2018

Academic license - for non-commercial use only

Gurobi 7.5.1 (mac64, Python) logging started Tue Apr 17 11:55:25 2018

Academic license - for non-commercial use only

Gurobi 7.5.1 (mac64, Python) logging started Tue Apr 17 11:55:25 2018

Academic license - for non-commercial use only

Gurobi 7.5.1 (mac64, Python) logging started Tue Apr 17 11:55:25 2018

Academic license - for non-commercial use only

Gurobi 7.5.1 (mac64, Python) logging started Tue Apr 17 11:55:45 2018

Academic license - for non-commercial use only

Gurobi 7.5.1 (mac64, Python) logging started Tue Apr 17 11:55:46 2018

Academic license - for non-commercial use only

Gurobi 7.5.1 (mac64, Python) logging started Tue Apr 17 11:55:46 2018

Academic license - for non-commercial use only

Gurobi 7.5.1 (mac64, Python) logging started Tue Apr 17 11:56:05 2018

Academic license - for non-commercial use only

Gurobi 7.5.1 (mac64, Python) logging started Tue Apr 17 11:56:05 2018

Academic license - for non-commercial use only

Gurobi 7.5.1 (mac64, Python) logging started Tue Apr 17 11:56:05 2018

Academic license - for non-commercial use only

Gurobi 7.5.1 (mac64, Python) logging started Tue Apr 17 11:56:24 2018

Academic license - for non-commercial use only

Gurobi 7.5.1 (mac64, Python) logging started Tue Apr 17 11:56:24 2018


Gurobi 7.5.1 (mac64, Python) logging started Tue Apr 17 11:56:24 2018

Academic license - for non-commercial use only
Academic license - for non-commercial use only

Gurobi 7.5.1 (mac64, Python) logging started Tue Apr 17 11:58:07 2018

Academic license - for non-commercial use only

Gurobi 7.5.1 (mac64, Python) logging started Tue Apr 17 13:10:55 2018

Academic license - for non-commercial use only

Gurobi 7.5.1 (mac64, Python) logging started Tue Apr 17 13:10:55 2018

Academic license - for non-commercial use only

Gurobi 7.5.1 (mac64, Python) logging started Tue Apr 17 13:10:55 2018

Academic license - for non-commercial use only

Gurobi 7.5.1 (mac64, Python) logging started Tue Apr 17 13:11:13 2018

Academic license - for non-commercial use only

Gurobi 7.5.1 (mac64, Python) logging started Tue Apr 17 13:11:13 2018

Academic license - for non-commercial use only

Gurobi 7.5.1 (mac64, Python) logging started Tue Apr 17 13:11:13 2018

Academic license - for non-commercial use only

Gurobi 7.5.1 (mac64, Python) logging started Tue Apr 17 13:11:35 2018

Academic license - for non-commercial use only

Gurobi 7.5.1 (mac64, Python) logging started Tue Apr 17 13:11:35 2018

Academic license - for non-commercial use only

Gurobi 7.5.1 (mac64, Python) logging started Tue Apr 17 13:11:35 2018

Academic license - for non-commercial use only

Gurobi 7.5.1 (mac64, Python) logging started Tue Apr 17 13:11:56 2018

Academic license - for non-commercial use only

Gurobi 7.5.1 (mac64, Python) logging started Tue Apr 17 13:11:56 2018

Academic license - for non-commercial use only

Gurobi 7.5.1 (mac64, Python) logging started Tue Apr 17 13:11:56 2018

Academic license - for non-commercial use only

Gurobi 7.5.1 (mac64, Python) logging started Tue Apr 17 13:12:12 2018

Academic license - for non-commercial use only

Gurobi 7.5.1 (mac64, Python) logging started Tue Apr 17 13:12:12 2018

Academic license - for non-commercial use only

Gurobi 7.5.1 (mac64, Python) logging started Tue Apr 17 13:12:12 2018

Academic license - for non-commercial use only

Gurobi 7.5.1 (mac64, Python) logging started Tue Apr 17 13:12:26 2018

Academic license - for non-commercial use only

Gurobi 7.5.1 (mac64, Python) logging started Tue Apr 17 13:12:26 2018

Academic license - for non-commercial use only

Gurobi 7.5.1 (mac64, Python) logging started Tue Apr 17 13:12:26 2018

Academic license - for non-commercial use only

Gurobi 7.5.1 (mac64, Python) logging started Tue Apr 17 13:12:40 2018

Academic license - for non-commercial use only

Gurobi 7.5.1 (mac64, Python) logging started Tue Apr 17 13:12:40 2018

Academic license - for non-commercial use only

Gurobi 7.5.1 (mac64, Python) logging started Tue Apr 17 13:12:40 2018

Academic license - for non-commercial use only

Gurobi 7.5.1 (mac64, Python) logging started Tue Apr 17 13:12:53 2018

Academic license - for non-commercial use only

Gurobi 7.5.1 (mac64, Python) logging started Tue Apr 17 13:12:53 2018


Gurobi 7.5.1 (mac64, Python) logging started Tue Apr 17 13:12:53 2018

Academic license - for non-commercial use only
Academic license - for non-commercial use only

Gurobi 7.5.1 (mac64, Python) logging started Tue Apr 17 13:13:10 2018

Academic license - for non-commercial use only

Gurobi 7.5.1 (mac64, Python) logging started Tue Apr 17 13:13:10 2018

Academic license - for non-commercial use only

Gurobi 7.5.1 (mac64, Python) logging started Tue Apr 17 13:13:10 2018

Academic license - for non-commercial use only

Gurobi 7.5.1 (mac64, Python) logging started Tue Apr 17 13:13:29 2018

Academic license - for non-commercial use only

Gurobi 7.5.1 (mac64, Python) logging started Tue Apr 17 13:13:29 2018


Gurobi 7.5.1 (mac64, Python) logging started Tue Apr 17 13:13:29 2018

Academic license - for non-commercial use only
Academic license - for non-commercial use only

Gurobi 7.5.1 (mac64, Python) logging started Tue Apr 17 13:13:42 2018

Academic license - for non-commercial use only

Gurobi 7.5.1 (mac64, Python) logging started Tue Apr 17 16:11:16 2018

Academic license - for non-commercial use only

Gurobi 7.5.1 (mac64, Python) logging started Tue Apr 17 16:11:16 2018


Gurobi 7.5.1 (mac64, Python) logging started Tue Apr 17 16:11:16 2018

Academic license - for non-commercial use only
Academic license - for non-commercial use only

Gurobi 7.5.1 (mac64, Python) logging started Tue Apr 17 16:11:37 2018

Academic license - for non-commercial use only

Gurobi 7.5.1 (mac64, Python) logging started Tue Apr 17 16:11:37 2018

Academic license - for non-commercial use only

Gurobi 7.5.1 (mac64, Python) logging started Tue Apr 17 16:11:37 2018

Academic license - for non-commercial use only

Gurobi 7.5.1 (mac64, Python) logging started Tue Apr 17 16:12:02 2018

Academic license - for non-commercial use only

Gurobi 7.5.1 (mac64, Python) logging started Tue Apr 17 16:12:02 2018

Academic license - for non-commercial use only

Gurobi 7.5.1 (mac64, Python) logging started Tue Apr 17 16:12:02 2018

Academic license - for non-commercial use only

Gurobi 7.5.1 (mac64, Python) logging started Tue Apr 17 16:12:27 2018

Academic license - for non-commercial use only

Gurobi 7.5.1 (mac64, Python) logging started Tue Apr 17 16:12:27 2018

Academic license - for non-commercial use only

Gurobi 7.5.1 (mac64, Python) logging started Tue Apr 17 16:12:28 2018

Academic license - for non-commercial use only

Gurobi 7.5.1 (mac64, Python) logging started Tue Apr 17 16:12:47 2018

Academic license - for non-commercial use only

Gurobi 7.5.1 (mac64, Python) logging started Tue Apr 17 16:12:47 2018

Academic license - for non-commercial use only

Gurobi 7.5.1 (mac64, Python) logging started Tue Apr 17 16:12:47 2018

Academic license - for non-commercial use only

Gurobi 7.5.1 (mac64, Python) logging started Tue Apr 17 16:13:06 2018

Academic license - for non-commercial use only

Gurobi 7.5.1 (mac64, Python) logging started Tue Apr 17 16:13:06 2018

Academic license - for non-commercial use only

Gurobi 7.5.1 (mac64, Python) logging started Tue Apr 17 16:13:06 2018

Academic license - for non-commercial use only

Gurobi 7.5.1 (mac64, Python) logging started Tue Apr 17 16:13:22 2018

Academic license - for non-commercial use only

Gurobi 7.5.1 (mac64, Python) logging started Tue Apr 17 16:13:22 2018

Academic license - for non-commercial use only

Gurobi 7.5.1 (mac64, Python) logging started Tue Apr 17 16:13:22 2018

Academic license - for non-commercial use only

Gurobi 7.5.1 (mac64, Python) logging started Tue Apr 17 16:13:43 2018

Academic license - for non-commercial use only

Gurobi 7.5.1 (mac64, Python) logging started Tue Apr 17 16:13:43 2018

Academic license - for non-commercial use only

Gurobi 7.5.1 (mac64, Python) logging started Tue Apr 17 16:13:43 2018

Academic license - for non-commercial use only

Gurobi 7.5.1 (mac64, Python) logging started Tue Apr 17 16:14:11 2018

Academic license - for non-commercial use only

Gurobi 7.5.1 (mac64, Python) logging started Tue Apr 17 16:14:11 2018

Academic license - for non-commercial use only

Gurobi 7.5.1 (mac64, Python) logging started Tue Apr 17 16:14:11 2018

Academic license - for non-commercial use only

Gurobi 7.5.1 (mac64, Python) logging started Tue Apr 17 16:14:38 2018

Academic license - for non-commercial use only

Gurobi 7.5.1 (mac64, Python) logging started Tue Apr 17 16:14:38 2018

Academic license - for non-commercial use only

Gurobi 7.5.1 (mac64, Python) logging started Tue Apr 17 16:14:38 2018

Academic license - for non-commercial use only

Gurobi 7.5.1 (mac64, Python) logging started Tue Apr 17 16:15:00 2018

Academic license - for non-commercial use only

Gurobi 7.5.1 (mac64, Python) logging started Tue Apr 17 16:15:00 2018

Academic license - for non-commercial use only

Gurobi 7.5.1 (mac64, Python) logging started Tue Apr 17 16:15:00 2018

Academic license - for non-commercial use only

Gurobi 7.5.1 (mac64, Python) logging started Tue Apr 17 16:15:20 2018

Academic license - for non-commercial use only

Gurobi 7.5.1 (mac64, Python) logging started Tue Apr 17 16:15:20 2018

Academic license - for non-commercial use only

Gurobi 7.5.1 (mac64, Python) logging started Tue Apr 17 16:15:20 2018

Academic license - for non-commercial use only

Gurobi 7.5.1 (mac64, Python) logging started Tue Apr 17 16:15:42 2018

Academic license - for non-commercial use only

Gurobi 7.5.1 (mac64, Python) logging started Tue Apr 17 16:15:42 2018

Academic license - for non-commercial use only

Gurobi 7.5.1 (mac64, Python) logging started Tue Apr 17 16:15:42 2018

Academic license - for non-commercial use only

Gurobi 7.5.1 (mac64, Python) logging started Tue Apr 17 16:16:02 2018

Academic license - for non-commercial use only

Gurobi 7.5.1 (mac64, Python) logging started Tue Apr 17 16:16:02 2018

Academic license - for non-commercial use only

Gurobi 7.5.1 (mac64, Python) logging started Tue Apr 17 16:16:02 2018

Academic license - for non-commercial use only

Gurobi 7.5.1 (mac64, Python) logging started Tue Apr 17 16:16:25 2018

Academic license - for non-commercial use only

Gurobi 7.5.1 (mac64, Python) logging started Tue Apr 17 16:16:25 2018

Academic license - for non-commercial use only

Gurobi 7.5.1 (mac64, Python) logging started Tue Apr 17 16:16:25 2018

Academic license - for non-commercial use only

Gurobi 7.5.1 (mac64, Python) logging started Tue Apr 17 16:16:51 2018

Academic license - for non-commercial use only

Gurobi 7.5.1 (mac64, Python) logging started Tue Apr 17 16:16:51 2018


Gurobi 7.5.1 (mac64, Python) logging started Tue Apr 17 16:16:51 2018

Academic license - for non-commercial use only
Academic license - for non-commercial use only

Gurobi 7.5.1 (mac64, Python) logging started Tue Apr 17 16:17:10 2018

Academic license - for non-commercial use only

Gurobi 7.5.1 (mac64, Python) logging started Tue Apr 17 16:17:10 2018

Academic license - for non-commercial use only

Gurobi 7.5.1 (mac64, Python) logging started Tue Apr 17 16:17:10 2018

Academic license - for non-commercial use only

Gurobi 7.5.1 (mac64, Python) logging started Tue Apr 17 16:17:39 2018


Gurobi 7.5.1 (mac64, Python) logging started Tue Apr 17 16:17:39 2018

Academic license - for non-commercial use only
Academic license - for non-commercial use only

Gurobi 7.5.1 (mac64, Python) logging started Tue Apr 17 16:17:39 2018

Academic license - for non-commercial use only

Gurobi 7.5.1 (mac64, Python) logging started Tue Apr 17 16:18:02 2018


Gurobi 7.5.1 (mac64, Python) logging started Tue Apr 17 16:18:02 2018

Academic license - for non-commercial use only

Gurobi 7.5.1 (mac64, Python) logging started Tue Apr 17 16:18:02 2018

Academic license - for non-commercial use only
Academic license - for non-commercial use only

Gurobi 7.5.1 (mac64, Python) logging started Tue Apr 17 16:18:35 2018

Academic license - for non-commercial use only

Gurobi 7.5.1 (mac64, Python) logging started Tue Apr 17 16:18:35 2018

Academic license - for non-commercial use only

Gurobi 7.5.1 (mac64, Python) logging started Tue Apr 17 16:18:35 2018

Academic license - for non-commercial use only

Gurobi 7.5.1 (mac64, Python) logging started Tue Apr 17 16:19:09 2018

Academic license - for non-commercial use only

Gurobi 7.5.1 (mac64, Python) logging started Tue Apr 17 16:19:10 2018

Academic license - for non-commercial use only

Gurobi 7.5.1 (mac64, Python) logging started Tue Apr 17 16:19:10 2018

Academic license - for non-commercial use only

Gurobi 7.5.1 (mac64, Python) logging started Tue Apr 17 16:19:46 2018

Academic license - for non-commercial use only

Gurobi 7.5.1 (mac64, Python) logging started Tue Apr 17 16:19:46 2018

Academic license - for non-commercial use only

Gurobi 7.5.1 (mac64, Python) logging started Tue Apr 17 16:19:46 2018

Academic license - for non-commercial use only

Gurobi 7.5.1 (mac64, Python) logging started Tue Apr 17 16:20:17 2018

Academic license - for non-commercial use only

Gurobi 7.5.1 (mac64, Python) logging started Tue Apr 17 16:20:17 2018

Academic license - for non-commercial use only

Gurobi 7.5.1 (mac64, Python) logging started Tue Apr 17 16:20:17 2018

Academic license - for non-commercial use only

Gurobi 7.5.1 (mac64, Python) logging started Tue Apr 17 16:21:29 2018

Academic license - for non-commercial use only

Gurobi 7.5.1 (mac64, Python) logging started Tue Apr 17 16:21:29 2018

Academic license - for non-commercial use only

Gurobi 7.5.1 (mac64, Python) logging started Tue Apr 17 16:21:29 2018

Academic license - for non-commercial use only

Gurobi 7.5.1 (mac64, Python) logging started Tue Apr 17 16:21:56 2018

Academic license - for non-commercial use only

Gurobi 7.5.1 (mac64, Python) logging started Tue Apr 17 16:21:56 2018

Academic license - for non-commercial use only

Gurobi 7.5.1 (mac64, Python) logging started Tue Apr 17 16:21:56 2018

Academic license - for non-commercial use only

Gurobi 7.5.1 (mac64, Python) logging started Tue Apr 17 16:22:25 2018

Academic license - for non-commercial use only

Gurobi 7.5.1 (mac64, Python) logging started Tue Apr 17 16:22:26 2018

Academic license - for non-commercial use only

Gurobi 7.5.1 (mac64, Python) logging started Tue Apr 17 16:22:26 2018

Academic license - for non-commercial use only

Gurobi 7.5.1 (mac64, Python) logging started Tue Apr 17 16:22:53 2018

Academic license - for non-commercial use only

Gurobi 7.5.1 (mac64, Python) logging started Tue Apr 17 16:22:53 2018

Academic license - for non-commercial use only

Gurobi 7.5.1 (mac64, Python) logging started Tue Apr 17 16:22:53 2018

Academic license - for non-commercial use only

Gurobi 7.5.1 (mac64, Python) logging started Tue Apr 17 16:23:27 2018

Academic license - for non-commercial use only

Gurobi 7.5.1 (mac64, Python) logging started Tue Apr 17 16:23:27 2018


Gurobi 7.5.1 (mac64, Python) logging started Tue Apr 17 16:23:27 2018

Academic license - for non-commercial use only
Academic license - for non-commercial use only

Gurobi 7.5.1 (mac64, Python) logging started Tue Apr 17 16:24:03 2018

Academic license - for non-commercial use only

Gurobi 7.5.1 (mac64, Python) logging started Tue Apr 17 16:24:03 2018

Academic license - for non-commercial use only

Gurobi 7.5.1 (mac64, Python) logging started Tue Apr 17 16:24:03 2018

Academic license - for non-commercial use only

Gurobi 7.5.1 (mac64, Python) logging started Tue Apr 17 16:24:49 2018

Academic license - for non-commercial use only

Gurobi 7.5.1 (mac64, Python) logging started Tue Apr 17 16:24:49 2018

Academic license - for non-commercial use only

Gurobi 7.5.1 (mac64, Python) logging started Tue Apr 17 16:24:50 2018

Academic license - for non-commercial use only

Gurobi 7.5.1 (mac64, Python) logging started Tue Apr 17 16:25:19 2018

Academic license - for non-commercial use only

Gurobi 7.5.1 (mac64, Python) logging started Tue Apr 17 16:25:19 2018

Academic license - for non-commercial use only

Gurobi 7.5.1 (mac64, Python) logging started Tue Apr 17 16:25:19 2018

Academic license - for non-commercial use only

Gurobi 7.5.1 (mac64, Python) logging started Tue Apr 17 16:26:04 2018

Academic license - for non-commercial use only

Gurobi 7.5.1 (mac64, Python) logging started Tue Apr 17 16:26:04 2018

Academic license - for non-commercial use only

Gurobi 7.5.1 (mac64, Python) logging started Tue Apr 17 16:26:04 2018

Academic license - for non-commercial use only

Gurobi 7.5.1 (mac64, Python) logging started Tue Apr 17 16:26:40 2018

Academic license - for non-commercial use only

Gurobi 7.5.1 (mac64, Python) logging started Tue Apr 17 16:26:40 2018

Academic license - for non-commercial use only

Gurobi 7.5.1 (mac64, Python) logging started Tue Apr 17 16:26:40 2018

Academic license - for non-commercial use only

Gurobi 7.5.1 (mac64, Python) logging started Tue Apr 17 16:27:13 2018

Academic license - for non-commercial use only

Gurobi 7.5.1 (mac64, Python) logging started Tue Apr 17 16:27:13 2018

Academic license - for non-commercial use only

Gurobi 7.5.1 (mac64, Python) logging started Tue Apr 17 16:27:13 2018

Academic license - for non-commercial use only

Gurobi 7.5.1 (mac64, Python) logging started Tue Apr 17 16:27:45 2018

Academic license - for non-commercial use only

Gurobi 7.5.1 (mac64, Python) logging started Tue Apr 17 16:27:45 2018

Academic license - for non-commercial use only

Gurobi 7.5.1 (mac64, Python) logging started Tue Apr 17 16:27:45 2018

Academic license - for non-commercial use only

Gurobi 7.5.1 (mac64, Python) logging started Tue Apr 17 16:28:23 2018


Gurobi 7.5.1 (mac64, Python) logging started Tue Apr 17 16:28:23 2018

Academic license - for non-commercial use only
Academic license - for non-commercial use only

Gurobi 7.5.1 (mac64, Python) logging started Tue Apr 17 16:28:23 2018

Academic license - for non-commercial use only

Gurobi 7.5.1 (mac64, Python) logging started Tue Apr 17 16:28:58 2018


Gurobi 7.5.1 (mac64, Python) logging started Tue Apr 17 16:28:58 2018

Academic license - for non-commercial use only
Academic license - for non-commercial use only

Gurobi 7.5.1 (mac64, Python) logging started Tue Apr 17 16:28:58 2018

Academic license - for non-commercial use only

Gurobi 7.5.1 (mac64, Python) logging started Tue Apr 17 16:30:00 2018

Academic license - for non-commercial use only

Gurobi 7.5.1 (mac64, Python) logging started Tue Apr 17 16:30:00 2018

Academic license - for non-commercial use only

Gurobi 7.5.1 (mac64, Python) logging started Tue Apr 17 16:30:00 2018

Academic license - for non-commercial use only

Gurobi 7.5.1 (mac64, Python) logging started Tue Apr 17 16:30:54 2018


Gurobi 7.5.1 (mac64, Python) logging started Tue Apr 17 16:30:54 2018

Academic license - for non-commercial use only
Academic license - for non-commercial use only

Gurobi 7.5.1 (mac64, Python) logging started Tue Apr 17 16:30:54 2018

Academic license - for non-commercial use only

Gurobi 7.5.1 (mac64, Python) logging started Tue Apr 17 16:31:48 2018


Gurobi 7.5.1 (mac64, Python) logging started Tue Apr 17 16:31:48 2018

Academic license - for non-commercial use only
Academic license - for non-commercial use only

Gurobi 7.5.1 (mac64, Python) logging started Tue Apr 17 16:31:48 2018

Academic license - for non-commercial use only

Gurobi 7.5.1 (mac64, Python) logging started Tue Apr 17 16:32:53 2018

Academic license - for non-commercial use only

Gurobi 7.5.1 (mac64, Python) logging started Tue Apr 17 16:32:53 2018

Academic license - for non-commercial use only

Gurobi 7.5.1 (mac64, Python) logging started Tue Apr 17 16:32:53 2018

Academic license - for non-commercial use only

Gurobi 7.5.1 (mac64, Python) logging started Tue Apr 17 16:33:47 2018

Academic license - for non-commercial use only

Gurobi 7.5.1 (mac64, Python) logging started Tue Apr 17 16:33:47 2018

Academic license - for non-commercial use only

Gurobi 7.5.1 (mac64, Python) logging started Tue Apr 17 16:33:47 2018

Academic license - for non-commercial use only

Gurobi 7.5.1 (mac64, Python) logging started Tue Apr 17 16:34:58 2018

Academic license - for non-commercial use only

Gurobi 7.5.1 (mac64, Python) logging started Tue Apr 17 16:34:58 2018

Academic license - for non-commercial use only

Gurobi 7.5.1 (mac64, Python) logging started Tue Apr 17 16:34:58 2018

Academic license - for non-commercial use only

Gurobi 7.5.1 (mac64, Python) logging started Tue Apr 17 16:35:50 2018

Academic license - for non-commercial use only

Gurobi 7.5.1 (mac64, Python) logging started Tue Apr 17 17:04:33 2018

Academic license - for non-commercial use only

Gurobi 7.5.1 (mac64, Python) logging started Tue Apr 17 17:04:33 2018

Academic license - for non-commercial use only

Gurobi 7.5.1 (mac64, Python) logging started Tue Apr 17 17:04:33 2018

Academic license - for non-commercial use only

Gurobi 7.5.1 (mac64, Python) logging started Tue Apr 17 17:05:58 2018

Academic license - for non-commercial use only

Gurobi 7.5.1 (mac64, Python) logging started Wed Apr 18 13:40:40 2018

Academic license - for non-commercial use only

Gurobi 7.5.1 (mac64, Python) logging started Wed Apr 18 13:46:49 2018

Academic license - for non-commercial use only

Gurobi 7.5.1 (mac64, Python) logging started Wed Apr 18 13:48:27 2018

Academic license - for non-commercial use only

Gurobi 7.5.1 (mac64, Python) logging started Wed Apr 18 13:51:20 2018

Academic license - for non-commercial use only

Gurobi 7.5.1 (mac64, Python) logging started Wed Apr 18 14:00:12 2018

Academic license - for non-commercial use only

Gurobi 7.5.1 (mac64, Python) logging started Wed Apr 18 14:00:39 2018

Academic license - for non-commercial use only

Gurobi 7.5.1 (mac64, Python) logging started Wed Apr 18 14:13:44 2018

Academic license - for non-commercial use only

Gurobi 7.5.1 (mac64, Python) logging started Wed Apr 18 14:14:50 2018

Academic license - for non-commercial use only

Gurobi 7.5.1 (mac64, Python) logging started Wed Apr 18 14:17:31 2018

Academic license - for non-commercial use only

Gurobi 7.5.1 (mac64, Python) logging started Wed Apr 18 14:23:07 2018

Academic license - for non-commercial use only

Gurobi 7.5.1 (mac64, Python) logging started Wed Apr 18 14:24:25 2018

Academic license - for non-commercial use only

Gurobi 7.5.1 (mac64, Python) logging started Wed Apr 18 14:27:55 2018

Academic license - for non-commercial use only

Gurobi 7.5.1 (mac64, Python) logging started Wed Apr 18 15:29:34 2018


Gurobi 7.5.1 (mac64, Python) logging started Wed Apr 18 15:29:34 2018


Gurobi 7.5.1 (mac64, Python) logging started Wed Apr 18 15:29:34 2018

Academic license - for non-commercial use only
Academic license - for non-commercial use only
Academic license - for non-commercial use only

Gurobi 7.5.1 (mac64, Python) logging started Wed Apr 18 15:32:48 2018


Gurobi 7.5.1 (mac64, Python) logging started Wed Apr 18 15:32:48 2018

Academic license - for non-commercial use only

Gurobi 7.5.1 (mac64, Python) logging started Wed Apr 18 15:32:48 2018

Academic license - for non-commercial use only
Academic license - for non-commercial use only

Gurobi 7.5.1 (mac64, Python) logging started Wed Apr 18 15:38:54 2018


Gurobi 7.5.1 (mac64, Python) logging started Wed Apr 18 15:38:54 2018


Gurobi 7.5.1 (mac64, Python) logging started Wed Apr 18 15:38:54 2018

Academic license - for non-commercial use only
Academic license - for non-commercial use only
Academic license - for non-commercial use only

Gurobi 7.5.1 (mac64, Python) logging started Wed Apr 18 16:26:56 2018


Gurobi 7.5.1 (mac64, Python) logging started Wed Apr 18 16:26:56 2018


Gurobi 7.5.1 (mac64, Python) logging started Wed Apr 18 16:26:56 2018

Academic license - for non-commercial use only
Academic license - for non-commercial use only
Academic license - for non-commercial use only

Gurobi 7.5.1 (mac64, Python) logging started Wed Apr 18 17:04:06 2018


Gurobi 7.5.1 (mac64, Python) logging started Wed Apr 18 17:04:06 2018

Academic license - for non-commercial use only

Gurobi 7.5.1 (mac64, Python) logging started Wed Apr 18 17:04:06 2018

Academic license - for non-commercial use only
Academic license - for non-commercial use only
